/*********************************************
 * OPL 12.6.0.0 Data
 * Author: Adrian Rodriguez Bazaga, Pau Rodriguez Esmerats
 * Creation Date: 06/12/2017 at 23:05:01
 *********************************************/

nNurses=324;
maxConsec=2;
maxPresence=7;
maxHours=5;
minHours=1;
hours=24;
demand= [53 66 74 78 66 74 78 69 61 31 6 8 10 12 12 9 7 6 6 4 47 92 47 63  ];
